GLPSOL--GLPK LP/MIP Solver 5.0
Parameter(s) specified in the command line:
 --lp ../modeles/4_164.lp --log 4_164.log
Reading problem data from '../modeles/4_164.lp'...
673 rows, 1320 columns, 4604 non-zeros
656 integer variables, all of which are binary
2003 lines were read
GLPK Integer Optimizer 5.0
673 rows, 1320 columns, 4604 non-zeros
656 integer variables, all of which are binary
Preprocessing...
648 constraint coefficient(s) were reduced
673 rows, 1316 columns, 4600 non-zeros
656 integer variables, all of which are binary
Scaling...
 A: min|aij| =  5.949e-04  max|aij| =  4.000e+00  ratio =  6.724e+03
GM: min|aij| =  1.104e-01  max|aij| =  9.055e+00  ratio =  8.200e+01
EQ: min|aij| =  1.220e-02  max|aij| =  1.000e+00  ratio =  8.200e+01
2N: min|aij| =  9.518e-03  max|aij| =  1.749e+00  ratio =  1.838e+02
Constructing initial basis...
Size of triangular part is 673
Solving LP relaxation...
GLPK Simplex Optimizer 5.0
673 rows, 1316 columns, 4600 non-zeros
      0: obj =   8.000000000e+00 inf =   1.950e+01 (9)
     51: obj =   3.599642937e-01 inf =   0.000e+00 (0)
*   200: obj =  -1.999405116e+00 inf =   4.380e-16 (0)
OPTIMAL LP SOLUTION FOUND
Integer optimization begins...
Long-step dual simplex will be used
+   200: mip =     not found yet >=              -inf        (1; 0)
+   384: >>>>>  -1.999405116e+00 >=  -1.999405116e+00 < 0.1% (183; 0)
+   384: mip =  -1.999405116e+00 >=     tree is empty   0.0% (0; 365)
INTEGER OPTIMAL SOLUTION FOUND
Time used:   0.2 secs
Memory used: 2.0 Mb (2054990 bytes)
